
Gurobi 11.0.3 (linux64) logging started Sat Nov 23 03:46:19 2024

Set parameter LogFile to value "/home/yihong/Coding/OR_SUC/SUC_results_bigM100000_thread4/case24_ieee_rts_theta0.1_epsilon0.025_gurobi_seed890000_num_gen100_N_WDR100_load_scaling_factor1_proposed_T28quadra_cost.txt"
Set parameter TimeLimit to value 3600
Gurobi Optimizer version 11.0.3 build v11.0.3rc0 (linux64 - "Ubuntu 20.04.6 LTS")

CPU model: AMD EPYC 7532 32-Core Processor, instruction set [SSE2|AVX|AVX2]
Thread count: 64 physical cores, 128 logical processors, using up to 4 threads

Optimize a model with 60682 rows, 34821 columns and 827226 nonzeros
Model fingerprint: 0xe5ba92e6
Model has 2800 quadratic constraints
Variable types: 32021 continuous, 2800 integer (2800 binary)
Coefficient statistics:
  Matrix range     [3e-04, 2e+03]
  QMatrix range    [2e-03, 8e-03]
  QLMatrix range   [9e-02, 6e+01]
  Objective range  [1e+00, 1e+00]
  Bounds range     [1e+00, 1e+00]
  RHS range        [1e+00, 9e+03]
Presolve removed 49096 rows and 15007 columns
Presolve time: 0.30s
Presolved: 11586 rows, 19814 columns, 74000 nonzeros
Presolved model has 2800 quadratic constraint(s)
Variable types: 17014 continuous, 2800 integer (2800 binary)

Root relaxation: objective 4.454136e+04, 9201 iterations, 0.26 seconds (0.38 work units)

    Nodes    |    Current Node    |     Objective Bounds      |     Work
 Expl Unexpl |  Obj  Depth IntInf | Incumbent    BestBd   Gap | It/Node Time

     0     0 44541.3644    0    -          - 44541.3644      -     -    0s
     0     0 503322.418    0  779          - 503322.418      -     -    1s
     0     0 775847.297    0  740          - 775847.297      -     -    1s
     0     0 775942.611    0  255          - 775942.611      -     -    1s
     0     0 776092.646    0  215          - 776092.646      -     -    2s
     0     0 776102.050    0  215          - 776102.050      -     -    2s
     0     0 776102.050    0  215          - 776102.050      -     -    2s
     0     0 776103.233    0  215          - 776103.233      -     -    2s
     0     2 776103.233    0  215          - 776103.233      -     -    3s
    70    76 776319.097   18  255          - 776114.379      -  47.4    5s
H  308   231                    776735.10069 776114.379  0.08%  33.5    7s
*  308   231              85    776735.10069 776114.379  0.08%  33.7    7s

Cutting planes:
  Gomory: 37
  Lift-and-project: 1
  Implied bound: 229
  MIR: 122
  Flow cover: 192
  RLT: 358

Explored 319 nodes (35311 simplex iterations) in 8.57 seconds (12.06 work units)
Thread count was 4 (of 128 available processors)

Solution count 2: 776735 776735 

Optimal solution found (tolerance 1.00e-03)
Warning: max constraint violation (2.3040e-07) exceeds tolerance
Best objective 7.767351006897e+05, best bound 7.761143793182e+05, gap 0.0799%
